(set-logic ALL)
(declare-const GEN1 Real)
(declare-const GEN2 Real)
(declare-const GEN3 Real)
(declare-const BAV4 Bool)
(declare-const BAV5 Bool)
(declare-const BAV6 Bool)
(declare-fun x () Real)
(assert (= (sin x) GEN1))
(assert (= (cos x) GEN2))
(assert (= (tan x) GEN3))
(assert (= BAV4 (= (sin x) GEN1)))
(assert (= BAV5 (= (cos x) GEN2)))
(assert (= BAV6 (= (tan x) GEN3)))
(check-sat)